(set-info :smt-lib-version 2.6)
(set-logic UF)
(set-info :source |Benchmarks from the paper: "Extending Sledgehammer with SMT Solvers" by Jasmin Blanchette, Sascha Bohme, and Lawrence C. Paulson, CADE 2011.  Translated to SMT2 by Andrew Reynolds and Morgan Deters.|)
(set-info :category "industrial")
(set-info :status unknown)
(declare-sort S1 0)
(declare-sort S2 0)
(declare-sort S3 0)
(declare-sort S4 0)
(declare-sort S5 0)
(declare-sort S6 0)
(declare-sort S7 0)
(declare-sort S8 0)
(declare-sort S9 0)
(declare-sort S10 0)
(declare-sort S11 0)
(declare-sort S12 0)
(declare-sort S13 0)
(declare-sort S14 0)
(declare-sort S15 0)
(declare-sort S16 0)
(declare-sort S17 0)
(declare-sort S18 0)
(declare-sort S19 0)
(declare-sort S20 0)
(declare-sort S21 0)
(declare-sort S22 0)
(declare-sort S23 0)
(declare-sort S24 0)
(declare-sort S25 0)
(declare-sort S26 0)
(declare-sort S27 0)
(declare-sort S28 0)
(declare-sort S29 0)
(declare-sort S30 0)
(declare-sort S31 0)
(declare-sort S32 0)
(declare-sort S33 0)
(declare-sort S34 0)
(declare-sort S35 0)
(declare-sort S36 0)
(declare-sort S37 0)
(declare-sort S38 0)
(declare-sort S39 0)
(declare-sort S40 0)
(declare-sort S41 0)
(declare-sort S42 0)
(declare-sort S43 0)
(declare-sort S44 0)
(declare-sort S45 0)
(declare-sort S46 0)
(declare-sort S47 0)
(declare-sort S48 0)
(declare-sort S49 0)
(declare-sort S50 0)
(declare-sort S51 0)
(declare-sort S52 0)
(declare-sort S53 0)
(declare-sort S54 0)
(declare-sort S55 0)
(declare-sort S56 0)
(declare-sort S57 0)
(declare-sort S58 0)
(declare-sort S59 0)
(declare-sort S60 0)
(declare-sort S61 0)
(declare-sort S62 0)
(declare-sort S63 0)
(declare-sort S64 0)
(declare-sort S65 0)
(declare-sort S66 0)
(declare-sort S67 0)
(declare-sort S68 0)
(declare-sort S69 0)
(declare-sort S70 0)
(declare-sort S71 0)
(declare-sort S72 0)
(declare-sort S73 0)
(declare-sort S74 0)
(declare-sort S75 0)
(declare-sort S76 0)
(declare-sort S77 0)
(declare-sort S78 0)
(declare-sort S79 0)
(declare-sort S80 0)
(declare-sort S81 0)
(declare-sort S82 0)
(declare-sort S83 0)
(declare-sort S84 0)
(declare-sort S85 0)
(declare-fun f1 () S1)
(declare-fun f2 () S1)
(declare-fun f3 (S3 S2) S1)
(declare-fun f4 () S3)
(declare-fun f5 (S7 S5) S1)
(declare-fun f6 (S8 S2) S7)
(declare-fun f7 (S4) S8)
(declare-fun f8 (S9 S5) S4)
(declare-fun f9 (S10 S6) S9)
(declare-fun f10 (S11 S4) S10)
(declare-fun f11 () S11)
(declare-fun f12 () S5)
(declare-fun f13 () S3)
(declare-fun f14 (S12 S6) S2)
(declare-fun f15 (S13 S2) S12)
(declare-fun f16 (S14 S2) S13)
(declare-fun f17 () S14)
(declare-fun f18 () S4)
(declare-fun f19 () S6)
(declare-fun f20 () S3)
(declare-fun f21 (S15 S2) S2)
(declare-fun f22 () S15)
(declare-fun f23 () S13)
(declare-fun f24 () S6)
(declare-fun f25 () S3)
(declare-fun f26 () S3)
(declare-fun f27 (S16 S6) S15)
(declare-fun f28 () S16)
(declare-fun f29 (S4) S3)
(declare-fun f30 (S17 S2) S16)
(declare-fun f31 () S17)
(declare-fun f32 (S18 S19) S1)
(declare-fun f33 (S20 S18) S18)
(declare-fun f34 (S18) S20)
(declare-fun f35 (S21 S7) S7)
(declare-fun f36 (S7) S21)
(declare-fun f37 (S22 S23) S1)
(declare-fun f38 (S24 S22) S22)
(declare-fun f39 (S22) S24)
(declare-fun f40 (S25 S26) S1)
(declare-fun f41 (S27 S25) S25)
(declare-fun f42 (S25) S27)
(declare-fun f43 (S28 S3) S3)
(declare-fun f44 (S3) S28)
(declare-fun f45 (S31 S2) S15)
(declare-fun f46 (S32 S30) S31)
(declare-fun f47 (S33 S29) S32)
(declare-fun f48 () S33)
(declare-fun f49 (S34 S5) S2)
(declare-fun f50 (S29 S2) S34)
(declare-fun f51 (S30 S2) S5)
(declare-fun f52 (S35 S34) S29)
(declare-fun f53 (S36 S31) S35)
(declare-fun f54 () S36)
(declare-fun f55 () S15)
(declare-fun f56 (S3) S25)
(declare-fun f57 () S26)
(declare-fun f58 () S2)
(declare-fun f59 () S2)
(declare-fun f60 () S2)
(declare-fun f61 () S6)
(declare-fun f62 () S4)
(declare-fun f63 (S4 S26 S37) S1)
(declare-fun f64 () S37)
(declare-fun f65 (S38 S5) S5)
(declare-fun f66 (S39 S5) S38)
(declare-fun f67 () S39)
(declare-fun f68 (S25 S40) S1)
(declare-fun f69 (S7 S37) S1)
(declare-fun f70 (S18) S22)
(declare-fun f71 (S22 S41) S1)
(declare-fun f72 (S4 S6) S5)
(declare-fun f73 (S42 S26) S2)
(declare-fun f74 (S43 S2) S42)
(declare-fun f75 (S44 S31) S43)
(declare-fun f76 () S44)
(declare-fun f77 () S31)
(declare-fun f78 () S12)
(declare-fun f79 () S5)
(declare-fun f80 () S6)
(declare-fun f81 () S5)
(declare-fun f82 (S45 S37) S38)
(declare-fun f83 (S46 S39) S45)
(declare-fun f84 () S46)
(declare-fun f85 (S47 S26) S26)
(declare-fun f86 (S48 S15) S47)
(declare-fun f87 () S48)
(declare-fun f88 () S15)
(declare-fun f89 () S4)
(declare-fun f90 (S49 S37) S2)
(declare-fun f91 (S50 S2) S49)
(declare-fun f92 (S51 S29) S50)
(declare-fun f93 () S51)
(declare-fun f94 (S52 S26) S37)
(declare-fun f95 (S53 S30) S52)
(declare-fun f96 () S53)
(declare-fun f97 (S54 S37) S26)
(declare-fun f98 (S55 S34) S54)
(declare-fun f99 () S55)
(declare-fun f100 (S56 S5) S6)
(declare-fun f101 () S56)
(declare-fun f102 () S56)
(declare-fun f103 (S57 S2) S3)
(declare-fun f104 () S57)
(declare-fun f105 (S58 S2) S6)
(declare-fun f106 () S58)
(declare-fun f107 () S14)
(declare-fun f108 (S59 S6) S13)
(declare-fun f109 () S59)
(declare-fun f110 (S60 S26) S25)
(declare-fun f111 (S57) S60)
(declare-fun f112 () S58)
(declare-fun f113 (S57) S3)
(declare-fun f114 (S57) S57)
(declare-fun f115 () S26)
(declare-fun f116 () S41)
(declare-fun f117 () S23)
(declare-fun f118 () S40)
(declare-fun f119 () S37)
(declare-fun f120 (S62 S41) S37)
(declare-fun f121 (S63 S61) S62)
(declare-fun f122 () S63)
(declare-fun f123 (S65 S23) S37)
(declare-fun f124 (S66 S64) S65)
(declare-fun f125 () S66)
(declare-fun f126 (S68 S37) S41)
(declare-fun f127 (S69 S67) S68)
(declare-fun f128 () S69)
(declare-fun f129 (S71 S37) S23)
(declare-fun f130 (S72 S70) S71)
(declare-fun f131 () S72)
(declare-fun f132 (S60) S25)
(declare-fun f133 (S73) S7)
(declare-fun f134 (S74 S37) S1)
(declare-fun f135 (S73) S74)
(declare-fun f136 (S77 S76) S1)
(declare-fun f137 (S75) S77)
(declare-fun f138 (S78 S76) S1)
(declare-fun f139 (S75) S78)
(declare-fun f140 (S81 S80) S1)
(declare-fun f141 (S79) S81)
(declare-fun f142 (S82 S80) S1)
(declare-fun f143 (S79) S82)
(declare-fun f144 (S81 S40) S1)
(declare-fun f145 (S60) S79)
(declare-fun f146 (S83) S18)
(declare-fun f147 (S84) S22)
(declare-fun f148 (S83) S84)
(declare-fun f149 (S77 S41) S1)
(declare-fun f150 (S84) S75)
(declare-fun f151 (S60) S60)
(declare-fun f152 (S75 S41) S77)
(declare-fun f153 (S84) S84)
(declare-fun f154 (S75) S75)
(declare-fun f155 (S84 S23) S22)
(declare-fun f156 (S83) S83)
(declare-fun f157 (S85 S80) S1)
(declare-fun f158 (S82 S80) S85)
(declare-fun f159 (S79) S79)
(declare-fun f160 (S82) S82)
(declare-fun f161 (S79 S40) S81)
(assert (not (= f1 f2)))
(assert (forall ((?v0 S2)) (= (= (f3 f4 ?v0) f1) (and (forall ((?v1 S4) (?v2 S5) (?v3 S2) (?v4 S6)) (=> (= (f5 (f6 (f7 (f8 (f9 (f10 f11 ?v1) ?v4) f12)) ?v0) ?v2) f1) (=> (= (f3 f13 ?v3) f1) (=> (= (f5 (f6 (f7 ?v1) ?v3) f12) f1) (= (f3 f13 (f14 (f15 (f16 f17 ?v0) ?v3) ?v4)) f1))))) (exists ((?v1 S5)) (= (f5 (f6 (f7 (f8 (f9 (f10 f11 f18) f19) f12)) ?v0) ?v1) f1))))))
(assert (forall ((?v0 S2)) (= (= (f3 f20 ?v0) f1) (and (= (f3 f13 ?v0) f1) (forall ((?v1 S4) (?v2 S5) (?v3 S2) (?v4 S6)) (=> (= (f5 (f6 (f7 (f8 (f9 (f10 f11 ?v1) ?v4) f12)) ?v0) ?v2) f1) (=> (= (f3 f13 ?v3) f1) (=> (= (f5 (f6 (f7 ?v1) ?v3) f12) f1) (= (f3 f13 (f14 (f15 (f16 f17 ?v0) ?v3) ?v4)) f1)))))))))
(assert (forall ((?v0 S2)) (= (f21 f22 ?v0) (f14 (f15 f23 ?v0) f24))))
(assert (forall ((?v0 S2)) (= (= (f3 f25 ?v0) f1) (exists ((?v1 S5)) (= (f5 (f6 (f7 (f8 (f9 (f10 f11 f18) f19) f12)) ?v0) ?v1) f1)))))
(assert (forall ((?v0 S2)) (= (= (f3 f26 ?v0) f1) (forall ((?v1 S4) (?v2 S5) (?v3 S2) (?v4 S6)) (=> (= (f5 (f6 (f7 (f8 (f9 (f10 f11 ?v1) ?v4) f12)) ?v0) ?v2) f1) (=> (= (f3 f13 ?v3) f1) (=> (= (f5 (f6 (f7 ?v1) ?v3) f12) f1) (= (f3 f13 (f14 (f15 (f16 f17 ?v0) ?v3) ?v4)) f1))))))))
(assert (forall ((?v0 S6) (?v1 S2)) (= (f21 (f27 f28 ?v0) ?v1) (f14 (f15 f23 ?v1) ?v0))))
(assert (forall ((?v0 S4) (?v1 S2)) (= (= (f3 (f29 ?v0) ?v1) f1) (exists ((?v2 S5)) (= (f5 (f6 (f7 ?v0) ?v1) ?v2) f1)))))
(assert (forall ((?v0 S2) (?v1 S6) (?v2 S2)) (= (f21 (f27 (f30 f31 ?v0) ?v1) ?v2) (f14 (f15 (f16 f17 ?v2) ?v0) ?v1))))
(assert (forall ((?v0 S18) (?v1 S18) (?v2 S19)) (= (= (f32 (f33 (f34 ?v0) ?v1) ?v2) f1) (and (= (f32 ?v0 ?v2) f1) (= (f32 ?v1 ?v2) f1)))))
(assert (forall ((?v0 S7) (?v1 S7) (?v2 S5)) (= (= (f5 (f35 (f36 ?v0) ?v1) ?v2) f1) (and (= (f5 ?v0 ?v2) f1) (= (f5 ?v1 ?v2) f1)))))
(assert (forall ((?v0 S22) (?v1 S22) (?v2 S23)) (= (= (f37 (f38 (f39 ?v0) ?v1) ?v2) f1) (and (= (f37 ?v0 ?v2) f1) (= (f37 ?v1 ?v2) f1)))))
(assert (forall ((?v0 S25) (?v1 S25) (?v2 S26)) (= (= (f40 (f41 (f42 ?v0) ?v1) ?v2) f1) (and (= (f40 ?v0 ?v2) f1) (= (f40 ?v1 ?v2) f1)))))
(assert (forall ((?v0 S3) (?v1 S3) (?v2 S2)) (= (= (f3 (f43 (f44 ?v0) ?v1) ?v2) f1) (and (= (f3 ?v0 ?v2) f1) (= (f3 ?v1 ?v2) f1)))))
(assert (forall ((?v0 S29) (?v1 S30) (?v2 S2) (?v3 S2)) (= (f21 (f45 (f46 (f47 f48 ?v0) ?v1) ?v2) ?v3) (f49 (f50 ?v0 ?v2) (f51 ?v1 ?v3)))))
(assert (forall ((?v0 S31) (?v1 S34) (?v2 S2) (?v3 S5)) (= (f49 (f50 (f52 (f53 f54 ?v0) ?v1) ?v2) ?v3) (f21 (f45 ?v0 ?v2) (f49 ?v1 ?v3)))))
(assert (forall ((?v0 S2)) (= (f21 f55 ?v0) ?v0)))
(assert (not (= (f40 (f56 f4) f57) f1)))
(assert (= (f40 (f56 f26) f57) f1))
(assert (= (f40 (f56 f25) f57) f1))
(assert (= (f3 f13 f58) f1))
(assert (= (f3 f13 f59) f1))
(assert (= (f3 f13 f60) f1))
(assert (not (= f61 f19)))
(assert (= (f5 (f6 (f7 f18) f59) f12) f1))
(assert (= (f40 (f56 f25) f57) f1))
(assert (= (f5 (f6 (f7 f62) f60) f12) f1))
(assert (= (f40 (f56 f26) f57) f1))
(assert (= (f40 (f56 f20) f57) f1))
(assert (= (f63 (f8 (f9 (f10 f11 f18) f19) f12) f57 f64) f1))
(assert (forall ((?v0 S5) (?v1 S5) (?v2 S2) (?v3 S4) (?v4 S6) (?v5 S5) (?v6 S2)) (=> (= f12 (f65 (f66 f67 ?v0) ?v1)) (=> (= (f3 f13 ?v2) f1) (=> (= (f5 (f6 (f7 (f8 (f9 (f10 f11 ?v3) ?v4) ?v0)) ?v2) ?v5) f1) (=> (= (f3 f13 ?v6) f1) (=> (= (f5 (f6 (f7 ?v3) ?v6) ?v0) f1) (= (f3 f13 (f14 (f15 (f16 f17 ?v2) ?v6) ?v4)) f1))))))))
(assert (forall ((?v0 S5) (?v1 S5) (?v2 S2) (?v3 S4) (?v4 S6) (?v5 S5) (?v6 S2)) (=> (= f12 (f65 (f66 f67 ?v0) ?v1)) (=> (= (f3 f13 ?v2) f1) (=> (= (f5 (f6 (f7 (f8 (f9 (f10 f11 ?v3) ?v4) ?v1)) ?v2) ?v5) f1) (=> (= (f3 f13 ?v6) f1) (=> (= (f5 (f6 (f7 ?v3) ?v6) ?v1) f1) (= (f3 f13 (f14 (f15 (f16 f17 ?v2) ?v6) ?v4)) f1))))))))
(assert (=> (forall ((?v0 S37)) (=> (= (f63 (f8 (f9 (f10 f11 f18) f19) f12) f57 ?v0) f1) false)) false))
(assert (forall ((?v0 S4) (?v1 S2) (?v2 S5) (?v3 S4) (?v4 S2) (?v5 S5) (?v6 S6)) (let ((?v_0 (f7 ?v3))) (=> (= (f5 (f6 (f7 ?v0) ?v1) ?v2) f1) (=> (= (f5 (f6 ?v_0 ?v4) ?v5) f1) (=> (= ?v0 (f8 (f9 (f10 f11 ?v3) ?v6) ?v5)) (= (f5 (f6 ?v_0 (f14 (f15 (f16 f17 ?v1) ?v4) ?v6)) ?v2) f1)))))))
(assert (forall ((?v0 S3) (?v1 S3) (?v2 S26)) (= (= (f40 (f56 (f43 (f44 ?v0) ?v1)) ?v2) f1) (and (= (f40 (f56 ?v0) ?v2) f1) (= (f40 (f56 ?v1) ?v2) f1)))))
(assert (forall ((?v0 S25) (?v1 S25) (?v2 S40)) (= (= (f68 (f41 (f42 ?v0) ?v1) ?v2) f1) (and (= (f68 ?v0 ?v2) f1) (= (f68 ?v1 ?v2) f1)))))
(assert (forall ((?v0 S7) (?v1 S7) (?v2 S37)) (= (= (f69 (f35 (f36 ?v0) ?v1) ?v2) f1) (and (= (f69 ?v0 ?v2) f1) (= (f69 ?v1 ?v2) f1)))))
(assert (forall ((?v0 S18) (?v1 S18) (?v2 S23)) (= (= (f37 (f70 (f33 (f34 ?v0) ?v1)) ?v2) f1) (and (= (f37 (f70 ?v0) ?v2) f1) (= (f37 (f70 ?v1) ?v2) f1)))))
(assert (forall ((?v0 S22) (?v1 S22) (?v2 S41)) (= (= (f71 (f38 (f39 ?v0) ?v1) ?v2) f1) (and (= (f71 ?v0 ?v2) f1) (= (f71 ?v1 ?v2) f1)))))
(assert (forall ((?v0 S6) (?v1 S6) (?v2 S4) (?v3 S5)) (=> (= ?v0 ?v1) (= (f72 (f8 (f9 (f10 f11 ?v2) ?v0) ?v3) ?v1) ?v3))))
(assert (= (f5 (f6 (f7 (f8 (f9 (f10 f11 f18) f19) f12)) (f73 (f74 (f75 f76 f77) (f14 f78 f61)) f57)) f79) f1))
(assert (forall ((?v0 S4) (?v1 S26) (?v2 S37)) (=> (= (f63 ?v0 ?v1 ?v2) f1) (= (f40 (f56 (f29 ?v0)) ?v1) f1))))
(assert (forall ((?v0 S2) (?v1 S6) (?v2 S6)) (=> (= (f3 f13 ?v0) f1) (= (f3 f13 (f14 (f15 (f16 f17 ?v0) (f14 f78 ?v1)) ?v2)) f1))))
(assert (forall ((?v0 S4) (?v1 S2) (?v2 S5) (?v3 S6) (?v4 S5)) (=> (= (f5 (f6 (f7 ?v0) ?v1) ?v2) f1) (= (f5 (f6 (f7 (f8 (f9 (f10 f11 ?v0) ?v3) ?v4)) (f14 (f15 f23 ?v1) ?v3)) ?v2) f1))))
(assert (forall ((?v0 S4) (?v1 S6) (?v2 S5)) (=> (= (f5 (f6 (f7 ?v0) (f14 f78 ?v1)) ?v2) f1) (=> (=> (= (f72 ?v0 ?v1) ?v2) false) false))))
(assert (forall ((?v0 S4) (?v1 S6) (?v2 S5)) (=> (= (f72 ?v0 ?v1) ?v2) (= (f5 (f6 (f7 ?v0) (f14 f78 ?v1)) ?v2) f1))))
(assert (forall ((?v0 S2) (?v1 S6)) (=> (= (f3 f13 ?v0) f1) (= (f3 f13 (f14 (f15 f23 ?v0) ?v1)) f1))))
(assert (forall ((?v0 S4) (?v1 S2) (?v2 S5) (?v3 S5) (?v4 S2)) (let ((?v_0 (f7 ?v0))) (=> (= (f5 (f6 ?v_0 ?v1) (f65 (f66 f67 ?v2) ?v3)) f1) (=> (= (f5 (f6 ?v_0 ?v4) ?v2) f1) (= (f5 (f6 ?v_0 (f21 (f45 f77 ?v1) ?v4)) ?v3) f1))))))
(assert (= (f5 (f6 (f7 (f8 (f9 (f10 f11 f62) f80) f12)) (f73 (f74 (f75 f76 f77) (f14 f78 f61)) f57)) f81) f1))
(assert (forall ((?v0 S5) (?v1 S5) (?v2 S5) (?v3 S5)) (= (= (f65 (f66 f67 ?v0) ?v1) (f65 (f66 f67 ?v2) ?v3)) (and (= ?v0 ?v2) (= ?v1 ?v3)))))
(assert (forall ((?v0 S4) (?v1 S6) (?v2 S26) (?v3 S5) (?v4 S5)) (let ((?v_0 (f6 (f7 ?v0) (f73 (f74 (f75 f76 f77) (f14 f78 ?v1)) ?v2)))) (=> (= (f5 ?v_0 ?v3) f1) (=> (= (f5 ?v_0 ?v4) f1) (= ?v3 ?v4))))))
(assert (forall ((?v0 S2) (?v1 S6)) (=> (= (f3 f13 ?v0) f1) (= (f3 f13 (f21 (f45 f77 ?v0) (f14 f78 ?v1))) f1))))
(assert (forall ((?v0 S6)) (= (f3 f13 (f14 f78 ?v0)) f1)))
(assert (forall ((?v0 S26) (?v1 S6)) (=> (= (f40 (f56 f13) ?v0) f1) (= (f3 f13 (f73 (f74 (f75 f76 f77) (f14 f78 ?v1)) ?v0)) f1))))
(assert (forall ((?v0 S4) (?v1 S2) (?v2 S2) (?v3 S5)) (=> (= (f5 (f6 (f7 ?v0) (f21 (f45 f77 ?v1) ?v2)) ?v3) f1) (=> (forall ((?v4 S5)) (let ((?v_0 (f7 ?v0))) (=> (= (f5 (f6 ?v_0 ?v1) (f65 (f66 f67 ?v4) ?v3)) f1) (=> (= (f5 (f6 ?v_0 ?v2) ?v4) f1) false)))) false))))
(assert (forall ((?v0 S6) (?v1 S26) (?v2 S6) (?v3 S26)) (let ((?v_0 (f75 f76 f77))) (= (= (f73 (f74 ?v_0 (f14 f78 ?v0)) ?v1) (f73 (f74 ?v_0 (f14 f78 ?v2)) ?v3)) (and (= ?v0 ?v2) (= ?v1 ?v3))))))
(assert (forall ((?v0 S2) (?v1 S6) (?v2 S2)) (= (f14 (f15 (f16 f17 (f14 (f15 f23 ?v0) ?v1)) ?v2) ?v1) ?v0)))
(assert (forall ((?v0 S6) (?v1 S2)) (= (f14 (f15 (f16 f17 (f14 f78 ?v0)) ?v1) ?v0) ?v1)))
(assert (forall ((?v0 S2) (?v1 S2) (?v2 S6)) (= (f14 (f15 f23 (f21 (f45 f77 ?v0) ?v1)) ?v2) (f21 (f45 f77 (f14 (f15 f23 ?v0) ?v2)) (f14 (f15 f23 ?v1) ?v2)))))
(assert (forall ((?v0 S2) (?v1 S2) (?v2 S2) (?v3 S6)) (= (f14 (f15 (f16 f17 (f21 (f45 f77 ?v0) ?v1)) ?v2) ?v3) (f21 (f45 f77 (f14 (f15 (f16 f17 ?v0) ?v2) ?v3)) (f14 (f15 (f16 f17 ?v1) ?v2) ?v3)))))
(assert (forall ((?v0 S6) (?v1 S2) (?v2 S2)) (not (= (f14 f78 ?v0) (f21 (f45 f77 ?v1) ?v2)))))
(assert (forall ((?v0 S2) (?v1 S2) (?v2 S6)) (not (= (f21 (f45 f77 ?v0) ?v1) (f14 f78 ?v2)))))
(assert (forall ((?v0 S2) (?v1 S26) (?v2 S2)) (let ((?v_0 (f75 f76 f77))) (= (= (f73 (f74 ?v_0 ?v0) ?v1) (f73 (f74 ?v_0 ?v2) ?v1)) (= ?v0 ?v2)))))
(assert (forall ((?v0 S2) (?v1 S2) (?v2 S2) (?v3 S2)) (= (= (f21 (f45 f77 ?v0) ?v1) (f21 (f45 f77 ?v2) ?v3)) (and (= ?v0 ?v2) (= ?v1 ?v3)))))
(assert (forall ((?v0 S6) (?v1 S6)) (= (= (f14 f78 ?v0) (f14 f78 ?v1)) (= ?v0 ?v1))))
(assert (forall ((?v0 S4) (?v1 S2) (?v2 S37) (?v3 S5) (?v4 S26)) (let ((?v_0 (f7 ?v0))) (=> (= (f5 (f6 ?v_0 ?v1) (f65 (f82 (f83 f84 f67) ?v2) ?v3)) f1) (=> (= (f63 ?v0 ?v4 ?v2) f1) (= (f5 (f6 ?v_0 (f73 (f74 (f75 f76 f77) ?v1) ?v4)) ?v3) f1))))))
(assert (forall ((?v0 S4) (?v1 S6) (?v2 S26) (?v3 S26) (?v4 S5) (?v5 S37) (?v6 S5)) (let ((?v_0 (f75 f76 f77)) (?v_1 (f7 ?v0))) (let ((?v_2 (f73 (f74 ?v_0 (f14 f78 ?v1)) ?v2))) (=> (= (f5 (f6 ?v_1 (f73 (f74 ?v_0 ?v_2) ?v3)) ?v4) f1) (=> (= (f63 ?v0 ?v2 ?v5) f1) (=> (= (f5 (f6 ?v_1 ?v_2) ?v6) f1) (exists ((?v7 S37)) (and (= ?v6 (f65 (f82 (f83 f84 f67) ?v7) ?v4)) (= (f63 ?v0 ?v3 ?v7) f1))))))))))
(assert (forall ((?v0 S4) (?v1 S6) (?v2 S26) (?v3 S5)) (=> (= (f5 (f6 (f7 ?v0) (f73 (f74 (f75 f76 f77) (f14 f78 ?v1)) ?v2)) ?v3) f1) (=> (forall ((?v4 S37)) (=> (= (f5 (f6 (f7 ?v0) (f14 f78 ?v1)) (f65 (f82 (f83 f84 f67) ?v4) ?v3)) f1) (=> (= (f63 ?v0 ?v2 ?v4) f1) false))) false))))
(assert (forall ((?v0 S4) (?v1 S2) (?v2 S26) (?v3 S5)) (=> (= (f5 (f6 (f7 ?v0) (f73 (f74 (f75 f76 f77) ?v1) ?v2)) ?v3) f1) (=> (forall ((?v4 S37)) (=> (= (f5 (f6 (f7 ?v0) ?v1) (f65 (f82 (f83 f84 f67) ?v4) ?v3)) f1) (=> (= (f63 ?v0 ?v2 ?v4) f1) false))) false))))
(assert (forall ((?v0 S4) (?v1 S2) (?v2 S26) (?v3 S5)) (=> (= (f5 (f6 (f7 ?v0) (f73 (f74 (f75 f76 f77) ?v1) ?v2)) ?v3) f1) (exists ((?v4 S37)) (and (= (f5 (f6 (f7 ?v0) ?v1) (f65 (f82 (f83 f84 f67) ?v4) ?v3)) f1) (= (f63 ?v0 ?v2 ?v4) f1))))))
(assert (forall ((?v0 S31) (?v1 S2) (?v2 S26) (?v3 S2)) (let ((?v_0 (f75 f76 ?v0))) (=> (forall ((?v4 S2) (?v5 S2) (?v6 S2)) (let ((?v_1 (f45 ?v0 ?v6))) (= (f21 (f45 ?v0 (f21 ?v_1 ?v4)) ?v5) (f21 (f45 ?v0 (f21 ?v_1 ?v5)) ?v4)))) (= (f21 (f45 ?v0 (f73 (f74 ?v_0 ?v1) ?v2)) ?v3) (f73 (f74 ?v_0 (f21 (f45 ?v0 ?v1) ?v3)) ?v2))))))
(assert (forall ((?v0 S4) (?v1 S2) (?v2 S5) (?v3 S6) (?v4 S26) (?v5 S37)) (=> (= (f5 (f6 (f7 ?v0) ?v1) ?v2) f1) (=> (= (f63 (f8 (f9 (f10 f11 ?v0) ?v3) ?v2) ?v4 ?v5) f1) (= (f63 ?v0 (f85 (f86 f87 (f27 (f30 f31 ?v1) ?v3)) ?v4) ?v5) f1)))))
(assert (forall ((?v0 S4) (?v1 S26) (?v2 S37) (?v3 S6) (?v4 S5)) (=> (= (f63 ?v0 ?v1 ?v2) f1) (= (f63 (f8 (f9 (f10 f11 ?v0) ?v3) ?v4) (f85 (f86 f87 (f27 f28 ?v3)) ?v1) ?v2) f1))))
(assert (forall ((?v0 S2) (?v1 S2) (?v2 S6) (?v3 S26)) (not (= (f21 (f45 f77 (f21 f88 ?v0)) ?v1) (f73 (f74 (f75 f76 f77) (f14 f78 ?v2)) ?v3)))))
(assert (forall ((?v0 S2)) (=> (= (f3 f13 ?v0) f1) (= (f3 f13 (f21 f88 ?v0)) f1))))
(assert (forall ((?v0 S26)) (= (f85 (f86 f87 f55) ?v0) ?v0)))
(assert (forall ((?v0 S6) (?v1 S6)) (= (= (f72 f89 ?v0) (f72 f89 ?v1)) (= ?v0 ?v1))))
(assert (forall ((?v0 S2) (?v1 S2)) (= (= (f21 f88 ?v0) (f21 f88 ?v1)) (= ?v0 ?v1))))
(assert (forall ((?v0 S2) (?v1 S2) (?v2 S2)) (not (= (f21 (f45 f77 ?v0) ?v1) (f21 f88 ?v2)))))
(assert (forall ((?v0 S2) (?v1 S2) (?v2 S2)) (not (= (f21 f88 ?v0) (f21 (f45 f77 ?v1) ?v2)))))
(assert (forall ((?v0 S6) (?v1 S2)) (not (= (f14 f78 ?v0) (f21 f88 ?v1)))))
(assert (forall ((?v0 S2) (?v1 S6)) (not (= (f21 f88 ?v0) (f14 f78 ?v1)))))
(assert (forall ((?v0 S29) (?v1 S2) (?v2 S30) (?v3 S26)) (= (f90 (f91 (f92 f93 ?v0) ?v1) (f94 (f95 f96 ?v2) ?v3)) (f73 (f74 (f75 f76 (f46 (f47 f48 ?v0) ?v2)) ?v1) ?v3))))
(assert (forall ((?v0 S31) (?v1 S2) (?v2 S34) (?v3 S37)) (= (f73 (f74 (f75 f76 ?v0) ?v1) (f97 (f98 f99 ?v2) ?v3)) (f90 (f91 (f92 f93 (f52 (f53 f54 ?v0) ?v2)) ?v1) ?v3))))
(assert (forall ((?v0 S2) (?v1 S26) (?v2 S2) (?v3 S26)) (let ((?v_0 (f75 f76 f77))) (= (= (f73 (f74 ?v_0 (f21 f88 ?v0)) ?v1) (f73 (f74 ?v_0 (f21 f88 ?v2)) ?v3)) (and (= ?v0 ?v2) (= ?v1 ?v3))))))
(assert (forall ((?v0 S5) (?v1 S5) (?v2 S6)) (not (= (f65 (f66 f67 ?v0) ?v1) (f72 f89 ?v2)))))
(assert (forall ((?v0 S6) (?v1 S5) (?v2 S5)) (not (= (f72 f89 ?v0) (f65 (f66 f67 ?v1) ?v2)))))
(assert (forall ((?v0 S2) (?v1 S26) (?v2 S2) (?v3 S6)) (let ((?v_0 (f75 f76 f77))) (= (f14 (f15 (f16 f17 (f73 (f74 ?v_0 ?v0) ?v1)) ?v2) ?v3) (f73 (f74 ?v_0 (f14 (f15 (f16 f17 ?v0) ?v2) ?v3)) (f85 (f86 f87 (f27 (f30 f31 ?v2) ?v3)) ?v1))))))
(assert (forall ((?v0 S2) (?v1 S26) (?v2 S6)) (let ((?v_0 (f75 f76 f77))) (= (f14 (f15 f23 (f73 (f74 ?v_0 ?v0) ?v1)) ?v2) (f73 (f74 ?v_0 (f14 (f15 f23 ?v0) ?v2)) (f85 (f86 f87 (f27 f28 ?v2)) ?v1))))))
(assert (forall ((?v0 S6) (?v1 S26) (?v2 S2) (?v3 S26)) (let ((?v_0 (f75 f76 f77))) (not (= (f73 (f74 ?v_0 (f14 f78 ?v0)) ?v1) (f73 (f74 ?v_0 (f21 f88 ?v2)) ?v3))))))
(assert (forall ((?v0 S2) (?v1 S2) (?v2 S26)) (let ((?v_0 (f75 f76 f77))) (=> (= (f3 f13 (f73 (f74 ?v_0 (f14 (f15 (f16 f17 ?v0) ?v1) f24)) ?v2)) f1) (=> (= (f3 f13 ?v1) f1) (= (f3 f13 (f73 (f74 ?v_0 (f21 (f45 f77 (f21 f88 ?v0)) ?v1)) ?v2)) f1))))))
(assert (forall ((?v0 S4) (?v1 S5) (?v2 S2) (?v3 S5)) (=> (= (f5 (f6 (f7 (f8 (f9 (f10 f11 ?v0) f24) ?v1)) ?v2) ?v3) f1) (= (f5 (f6 (f7 ?v0) (f21 f88 ?v2)) (f65 (f66 f67 ?v1) ?v3)) f1))))
(assert (forall ((?v0 S26)) (let ((?v_0 (f56 f13))) (=> (= (f40 ?v_0 ?v0) f1) (= (f40 ?v_0 (f85 (f86 f87 f22) ?v0)) f1)))))
(assert (forall ((?v0 S5)) (=> (forall ((?v1 S6)) (=> (= ?v0 (f72 f89 ?v1)) false)) (=> (forall ((?v1 S5) (?v2 S5)) (=> (= ?v0 (f65 (f66 f67 ?v1) ?v2)) false)) false))))
(assert (forall ((?v0 S4) (?v1 S2) (?v2 S5)) (=> (= (f5 (f6 (f7 ?v0) (f21 f88 ?v1)) ?v2) f1) (=> (forall ((?v3 S5) (?v4 S5)) (=> (= ?v2 (f65 (f66 f67 ?v3) ?v4)) (=> (= (f5 (f6 (f7 (f8 (f9 (f10 f11 ?v0) f24) ?v3)) ?v1) ?v4) f1) false))) false))))
(assert (forall ((?v0 S2)) (= (= (f3 f13 ?v0) f1) (or (exists ((?v1 S26) (?v2 S6)) (and (= ?v0 (f73 (f74 (f75 f76 f77) (f14 f78 ?v2)) ?v1)) (= (f40 (f56 f13) ?v1) f1))) (or (exists ((?v1 S2)) (and (= ?v0 (f21 f88 ?v1)) (= (f3 f13 ?v1) f1))) (exists ((?v1 S2) (?v2 S2) (?v3 S26)) (let ((?v_0 (f75 f76 f77))) (and (= ?v0 (f73 (f74 ?v_0 (f21 (f45 f77 (f21 f88 ?v1)) ?v2)) ?v3)) (and (= (f3 f13 (f73 (f74 ?v_0 (f14 (f15 (f16 f17 ?v1) ?v2) f24)) ?v3)) f1) (= (f3 f13 ?v2) f1))))))))))
(assert (forall ((?v0 S2)) (=> (forall ((?v1 S6)) (=> (= ?v0 (f14 f78 ?v1)) false)) (=> (forall ((?v1 S2) (?v2 S2)) (=> (= ?v0 (f21 (f45 f77 ?v1) ?v2)) false)) (=> (forall ((?v1 S2)) (=> (= ?v0 (f21 f88 ?v1)) false)) false)))))
(assert (forall ((?v0 S4) (?v1 S2) (?v2 S5)) (=> (= (f5 (f6 (f7 ?v0) (f21 f88 ?v1)) ?v2) f1) (=> (forall ((?v3 S5) (?v4 S5)) (=> (= (f5 (f6 (f7 (f8 (f9 (f10 f11 ?v0) f24) ?v3)) ?v1) ?v4) f1) false)) false))))
(assert (forall ((?v0 S6)) (= (f100 f101 (f72 f89 ?v0)) f24)))
(assert (forall ((?v0 S6)) (= (f100 f102 (f72 f89 ?v0)) f24)))
(assert (forall ((?v0 S2) (?v1 S2)) (= (f3 (f103 f104 (f21 (f45 f77 (f21 f88 ?v0)) ?v1)) (f14 (f15 (f16 f17 ?v0) ?v1) f24)) f1)))
(assert (forall ((?v0 S6)) (= (f105 f106 (f14 f78 ?v0)) f24)))
(assert (forall ((?v0 S2) (?v1 S2)) (= (f14 (f15 (f16 f107 ?v0) ?v1) f24) (f14 (f15 (f16 f17 ?v0) ?v1) f24))))
(assert (forall ((?v0 S2) (?v1 S2) (?v2 S2)) (let ((?v_0 (f45 f77 ?v2))) (=> (= (f3 (f103 f104 ?v0) ?v1) f1) (= (f3 (f103 f104 (f21 ?v_0 ?v0)) (f21 ?v_0 ?v1)) f1)))))
(assert (forall ((?v0 S2) (?v1 S2) (?v2 S2)) (=> (= (f3 (f103 f104 ?v0) ?v1) f1) (= (f3 (f103 f104 (f21 (f45 f77 ?v0) ?v2)) (f21 (f45 f77 ?v1) ?v2)) f1))))
(assert (forall ((?v0 S6) (?v1 S2)) (=> (= (f3 (f103 f104 (f14 f78 ?v0)) ?v1) f1) false)))
(assert (forall ((?v0 S2) (?v1 S2)) (=> (= (f3 (f103 f104 ?v0) ?v1) f1) (= (f3 (f103 f104 (f21 f88 ?v0)) (f21 f88 ?v1)) f1))))
(assert (forall ((?v0 S4) (?v1 S2) (?v2 S5) (?v3 S2)) (let ((?v_0 (f7 ?v0))) (=> (= (f5 (f6 ?v_0 ?v1) ?v2) f1) (=> (= (f3 (f103 f104 ?v1) ?v3) f1) (= (f5 (f6 ?v_0 ?v3) ?v2) f1))))))
(assert (forall ((?v0 S2) (?v1 S2) (?v2 S2) (?v3 S6)) (=> (= (f3 (f103 f104 ?v0) ?v1) f1) (= (f3 (f103 f104 (f14 (f15 (f16 f17 ?v0) ?v2) ?v3)) (f14 (f15 (f16 f17 ?v1) ?v2) ?v3)) f1))))
(assert (forall ((?v0 S2) (?v1 S2) (?v2 S6)) (=> (= (f3 (f103 f104 ?v0) ?v1) f1) (= (f3 (f103 f104 (f14 (f15 f23 ?v0) ?v2)) (f14 (f15 f23 ?v1) ?v2)) f1))))
(assert (forall ((?v0 S2) (?v1 S2) (?v2 S2) (?v3 S6)) (= (f14 (f15 (f16 f107 (f21 (f45 f77 ?v0) ?v1)) ?v2) ?v3) (f21 (f45 f77 (f14 (f15 (f16 f107 ?v0) ?v2) ?v3)) (f14 (f15 (f16 f107 ?v1) ?v2) ?v3)))))
(assert (forall ((?v0 S2) (?v1 S2)) (=> (= (f3 (f103 f104 (f21 f88 ?v0)) ?v1) f1) (=> (forall ((?v2 S2)) (=> (= ?v1 (f21 f88 ?v2)) (=> (= (f3 (f103 f104 ?v0) ?v2) f1) false))) false))))
(assert (forall ((?v0 S2) (?v1 S2) (?v2 S26)) (let ((?v_0 (f75 f76 f77))) (=> (= (f3 (f103 f104 ?v0) ?v1) f1) (= (f3 (f103 f104 (f73 (f74 ?v_0 ?v0) ?v2)) (f73 (f74 ?v_0 ?v1) ?v2)) f1)))))
(assert (forall ((?v0 S2) (?v1 S2) (?v2 S2)) (=> (= (f3 (f103 f104 (f21 (f45 f77 ?v0) ?v1)) ?v2) f1) (=> (forall ((?v3 S2)) (=> (= ?v2 (f14 (f15 (f16 f17 ?v3) ?v1) f24)) (=> (= ?v0 (f21 f88 ?v3)) false))) (=> (forall ((?v3 S2)) (=> (= ?v2 (f21 (f45 f77 ?v3) ?v1)) (=> (= (f3 (f103 f104 ?v0) ?v3) f1) false))) (=> (forall ((?v3 S2)) (=> (= ?v2 (f21 (f45 f77 ?v0) ?v3)) (=> (= (f3 (f103 f104 ?v1) ?v3) f1) false))) false))))))
(assert (forall ((?v0 S2) (?v1 S2) (?v2 S6)) (= (f14 (f15 (f16 f107 ?v0) ?v1) ?v2) (f14 (f15 (f16 f17 ?v0) (f14 (f15 (f108 f109 ?v2) ?v1) f24)) ?v2))))
(assert (forall ((?v0 S2)) (exists ((?v1 S26) (?v2 S2)) (and (= ?v0 (f73 (f74 (f75 f76 f77) ?v2) ?v1)) (or (exists ((?v3 S6)) (= ?v2 (f14 f78 ?v3))) (exists ((?v3 S2)) (= ?v2 (f21 f88 ?v3))))))))
(assert (forall ((?v0 S2) (?v1 S6)) (= (f14 (f15 (f108 f109 f24) ?v0) ?v1) ?v0)))
(assert (forall ((?v0 S6) (?v1 S2) (?v2 S2) (?v3 S6)) (let ((?v_0 (f108 f109 ?v0))) (= (f14 (f15 ?v_0 (f21 (f45 f77 ?v1) ?v2)) ?v3) (f21 (f45 f77 (f14 (f15 ?v_0 ?v1) ?v3)) (f14 (f15 ?v_0 ?v2) ?v3))))))
(assert (forall ((?v0 S26) (?v1 S26) (?v2 S2)) (let ((?v_0 (f74 (f75 f76 f77) ?v2))) (=> (= (f40 (f110 (f111 f104) ?v0) ?v1) f1) (= (f3 (f103 f104 (f73 ?v_0 ?v0)) (f73 ?v_0 ?v1)) f1)))))
(assert (forall ((?v0 S6) (?v1 S26) (?v2 S2)) (=> (= (f3 (f103 f104 (f73 (f74 (f75 f76 f77) (f14 f78 ?v0)) ?v1)) ?v2) f1) (exists ((?v3 S26)) (and (= (f40 (f110 (f111 f104) ?v1) ?v3) f1) (= ?v2 (f73 (f74 (f75 f76 f77) (f14 f78 ?v0)) ?v3)))))))
(assert (forall ((?v0 S6)) (= (f105 f112 (f14 f78 ?v0)) f24)))
(assert (forall ((?v0 S2) (?v1 S2) (?v2 S2) (?v3 S26)) (let ((?v_1 (f75 f76 f77)) (?v_0 (f113 (f114 f104)))) (=> (= (f3 ?v_0 ?v0) f1) (=> (= (f3 ?v_0 ?v1) f1) (=> (= ?v1 (f73 (f74 ?v_1 (f14 (f15 (f16 f17 ?v2) ?v0) f24)) ?v3)) (= (f3 ?v_0 (f73 (f74 ?v_1 (f21 (f45 f77 (f21 f88 ?v2)) ?v0)) ?v3)) f1)))))))
(assert (forall ((?v0 S2) (?v1 S2) (?v2 S26)) (let ((?v_0 (f21 f88 ?v0))) (= (= ?v_0 (f73 (f74 (f75 f76 f77) ?v1) ?v2)) (and (= ?v_0 ?v1) (= ?v2 f115))))))
(assert (forall ((?v0 S3)) (= (f40 (f56 ?v0) f115) f1)))
(assert (forall ((?v0 S22)) (= (f71 ?v0 f116) f1)))
(assert (forall ((?v0 S18)) (= (f37 (f70 ?v0) f117) f1)))
(assert (forall ((?v0 S25)) (= (f68 ?v0 f118) f1)))
(assert (forall ((?v0 S7)) (= (f69 ?v0 f119) f1)))
(assert (forall ((?v0 S15) (?v1 S26)) (= (= f115 (f85 (f86 f87 ?v0) ?v1)) (= ?v1 f115))))
(assert (forall ((?v0 S30) (?v1 S26)) (= (= f119 (f94 (f95 f96 ?v0) ?v1)) (= ?v1 f115))))
(assert (forall ((?v0 S61) (?v1 S41)) (= (= f119 (f120 (f121 f122 ?v0) ?v1)) (= ?v1 f116))))
(assert (forall ((?v0 S64) (?v1 S23)) (= (= f119 (f123 (f124 f125 ?v0) ?v1)) (= ?v1 f117))))
(assert (forall ((?v0 S34) (?v1 S37)) (= (= f115 (f97 (f98 f99 ?v0) ?v1)) (= ?v1 f119))))
(assert (forall ((?v0 S67) (?v1 S37)) (= (= f116 (f126 (f127 f128 ?v0) ?v1)) (= ?v1 f119))))
(assert (forall ((?v0 S70) (?v1 S37)) (= (= f117 (f129 (f130 f131 ?v0) ?v1)) (= ?v1 f119))))
(assert (forall ((?v0 S15)) (= (f85 (f86 f87 ?v0) f115) f115)))
(assert (forall ((?v0 S34)) (= (f97 (f98 f99 ?v0) f119) f115)))
(assert (forall ((?v0 S67)) (= (f126 (f127 f128 ?v0) f119) f116)))
(assert (forall ((?v0 S70)) (= (f129 (f130 f131 ?v0) f119) f117)))
(assert (forall ((?v0 S30)) (= (f94 (f95 f96 ?v0) f115) f119)))
(assert (forall ((?v0 S61)) (= (f120 (f121 f122 ?v0) f116) f119)))
(assert (forall ((?v0 S64)) (= (f123 (f124 f125 ?v0) f117) f119)))
(assert (forall ((?v0 S15) (?v1 S26)) (= (= (f85 (f86 f87 ?v0) ?v1) f115) (= ?v1 f115))))
(assert (forall ((?v0 S30) (?v1 S26)) (= (= (f94 (f95 f96 ?v0) ?v1) f119) (= ?v1 f115))))
(assert (forall ((?v0 S61) (?v1 S41)) (= (= (f120 (f121 f122 ?v0) ?v1) f119) (= ?v1 f116))))
(assert (forall ((?v0 S64) (?v1 S23)) (= (= (f123 (f124 f125 ?v0) ?v1) f119) (= ?v1 f117))))
(assert (forall ((?v0 S34) (?v1 S37)) (= (= (f97 (f98 f99 ?v0) ?v1) f115) (= ?v1 f119))))
(assert (forall ((?v0 S67) (?v1 S37)) (= (= (f126 (f127 f128 ?v0) ?v1) f116) (= ?v1 f119))))
(assert (forall ((?v0 S70) (?v1 S37)) (= (= (f129 (f130 f131 ?v0) ?v1) f117) (= ?v1 f119))))
(assert (forall ((?v0 S31) (?v1 S2)) (= (f73 (f74 (f75 f76 ?v0) ?v1) f115) ?v1)))
(assert (forall ((?v0 S2)) (=> (= (f3 f13 ?v0) f1) (= (f3 (f113 (f114 f104)) ?v0) f1))))
(assert (forall ((?v0 S2)) (=> (= (f3 (f113 (f114 f104)) ?v0) f1) (= (f3 f13 ?v0) f1))))
(assert (forall ((?v0 S39) (?v1 S5)) (= (f65 (f82 (f83 f84 ?v0) f119) ?v1) ?v1)))
(assert (forall ((?v0 S6) (?v1 S2) (?v2 S26)) (let ((?v_0 (f14 f78 ?v0))) (= (= ?v_0 (f73 (f74 (f75 f76 f77) ?v1) ?v2)) (and (= ?v_0 ?v1) (= ?v2 f115))))))
(assert (forall ((?v0 S2) (?v1 S26) (?v2 S2)) (let ((?v_0 (f21 f88 ?v2))) (= (= (f73 (f74 (f75 f76 f77) ?v0) ?v1) ?v_0) (and (= ?v0 ?v_0) (= ?v1 f115))))))
(assert (forall ((?v0 S57) (?v1 S26)) (=> (= (f40 (f56 (f113 ?v0)) ?v1) f1) (= (f40 (f132 (f111 ?v0)) ?v1) f1))))
(assert (forall ((?v0 S73) (?v1 S37)) (=> (= (f69 (f133 ?v0) ?v1) f1) (= (f134 (f135 ?v0) ?v1) f1))))
(assert (forall ((?v0 S75) (?v1 S76)) (=> (= (f136 (f137 ?v0) ?v1) f1) (= (f138 (f139 ?v0) ?v1) f1))))
(assert (forall ((?v0 S79) (?v1 S80)) (=> (= (f140 (f141 ?v0) ?v1) f1) (= (f142 (f143 ?v0) ?v1) f1))))
(assert (forall ((?v0 S60) (?v1 S40)) (=> (= (f68 (f132 ?v0) ?v1) f1) (= (f144 (f141 (f145 ?v0)) ?v1) f1))))
(assert (forall ((?v0 S83) (?v1 S23)) (=> (= (f37 (f70 (f146 ?v0)) ?v1) f1) (= (f37 (f147 (f148 ?v0)) ?v1) f1))))
(assert (forall ((?v0 S84) (?v1 S41)) (=> (= (f71 (f147 ?v0) ?v1) f1) (= (f149 (f137 (f150 ?v0)) ?v1) f1))))
(assert (forall ((?v0 S57) (?v1 S26)) (=> (= (f40 (f132 (f111 ?v0)) ?v1) f1) (= (f40 (f56 (f113 ?v0)) ?v1) f1))))
(assert (forall ((?v0 S73) (?v1 S37)) (=> (= (f134 (f135 ?v0) ?v1) f1) (= (f69 (f133 ?v0) ?v1) f1))))
(assert (forall ((?v0 S75) (?v1 S76)) (=> (= (f138 (f139 ?v0) ?v1) f1) (= (f136 (f137 ?v0) ?v1) f1))))
(assert (forall ((?v0 S79) (?v1 S80)) (=> (= (f142 (f143 ?v0) ?v1) f1) (= (f140 (f141 ?v0) ?v1) f1))))
(assert (forall ((?v0 S60) (?v1 S40)) (=> (= (f144 (f141 (f145 ?v0)) ?v1) f1) (= (f68 (f132 ?v0) ?v1) f1))))
(assert (forall ((?v0 S83) (?v1 S23)) (=> (= (f37 (f147 (f148 ?v0)) ?v1) f1) (= (f37 (f70 (f146 ?v0)) ?v1) f1))))
(assert (forall ((?v0 S84) (?v1 S41)) (=> (= (f149 (f137 (f150 ?v0)) ?v1) f1) (= (f71 (f147 ?v0) ?v1) f1))))
(assert (forall ((?v0 S57) (?v1 S26) (?v2 S26)) (= (= (f40 (f110 (f111 (f114 ?v0)) ?v1) ?v2) f1) (= (f40 (f110 (f151 (f111 ?v0)) ?v1) ?v2) f1))))
(assert (forall ((?v0 S84) (?v1 S41) (?v2 S41)) (= (= (f149 (f152 (f150 (f153 ?v0)) ?v1) ?v2) f1) (= (f149 (f152 (f154 (f150 ?v0)) ?v1) ?v2) f1))))
(assert (forall ((?v0 S83) (?v1 S23) (?v2 S23)) (= (= (f37 (f155 (f148 (f156 ?v0)) ?v1) ?v2) f1) (= (f37 (f155 (f153 (f148 ?v0)) ?v1) ?v2) f1))))
(assert (forall ((?v0 S79) (?v1 S80) (?v2 S80)) (= (= (f157 (f158 (f143 (f159 ?v0)) ?v1) ?v2) f1) (= (f157 (f158 (f160 (f143 ?v0)) ?v1) ?v2) f1))))
(assert (forall ((?v0 S60) (?v1 S40) (?v2 S40)) (= (= (f144 (f161 (f145 (f151 ?v0)) ?v1) ?v2) f1) (= (f144 (f161 (f159 (f145 ?v0)) ?v1) ?v2) f1))))
(assert (forall ((?v0 S57)) (= (f111 (f114 ?v0)) (f151 (f111 ?v0)))))
(assert (forall ((?v0 S84)) (= (f150 (f153 ?v0)) (f154 (f150 ?v0)))))
(assert (forall ((?v0 S83)) (= (f148 (f156 ?v0)) (f153 (f148 ?v0)))))
(assert (forall ((?v0 S79)) (= (f143 (f159 ?v0)) (f160 (f143 ?v0)))))
(assert (forall ((?v0 S60)) (= (f145 (f151 ?v0)) (f159 (f145 ?v0)))))
(check-sat)
(exit)
